(set-info :source |printed by MathSAT|)
(declare-fun .PC.4 () Bool)
(declare-fun .PC.0 () Bool)
(declare-fun .PC.2 () Bool)
(declare-fun .PC.1 () Bool)
(declare-fun .PC.3 () Bool)
(declare-fun r__6$main.SSA.1.ssa () (_ BitVec 32))
(declare-fun l__4$main.SSA.1.ssa () (_ BitVec 32))
(declare-fun __RET__$main.next () (_ BitVec 32))
(declare-fun l__4$main () (_ BitVec 32))
(declare-fun |__NONDET_INLINE_INIT__3__7$main#0| () (_ BitVec 32))
(declare-fun j__10$main () (_ BitVec 32))
(declare-fun i__8$main.next () (_ BitVec 32))
(declare-fun .PC.3.next () Bool)
(declare-fun i__8$main () (_ BitVec 32))
(declare-fun n__2$main.next () (_ BitVec 32))
(declare-fun r__6$main () (_ BitVec 32))
(declare-fun .PC.1.next () Bool)
(declare-fun j__10$main.next () (_ BitVec 32))
(declare-fun l__4$main.next () (_ BitVec 32))
(declare-fun .PC.4.next () Bool)
(declare-fun .PC.0.next () Bool)
(declare-fun .PC.2.next () Bool)
(declare-fun __RET__$main () (_ BitVec 32))
(declare-fun r__6$main.next () (_ BitVec 32))
(declare-fun n__2$main () (_ BitVec 32))
(define-fun .def_17 () Bool (! .PC.0 :next |.PC.0.next|))
(define-fun .def_18 () Bool (not .def_17))
(define-fun .def_15 () Bool (! .PC.1 :next |.PC.1.next|))
(define-fun .def_16 () Bool (not .def_15))
(define-fun .def_19 () Bool (and .def_16 .def_18))
(define-fun .def_13 () Bool (! .PC.2 :next |.PC.2.next|))
(define-fun .def_14 () Bool (not .def_13))
(define-fun .def_20 () Bool (and .def_14 .def_19))
(define-fun .def_11 () Bool (! .PC.3 :next |.PC.3.next|))
(define-fun .def_12 () Bool (not .def_11))
(define-fun .def_21 () Bool (and .def_12 .def_20))
(define-fun .def_9 () Bool (! .PC.4 :next |.PC.4.next|))
(define-fun .def_10 () Bool (not .def_9))
(define-fun .def_22 () Bool (! (and .def_10 .def_21) :init true))
(define-fun .def_397 () Bool (= r__6$main.next r__6$main.SSA.1.ssa))
(define-fun .def_387 () Bool (= n__2$main.next r__6$main.SSA.1.ssa))
(define-fun .def_384 () Bool (= n__2$main.next |__NONDET_INLINE_INIT__3__7$main#0|))
(define-fun .def_381 () Bool (bvslt n__2$main.next (_ bv1 32)))
(define-fun .def_382 () Bool (not .def_381))
(define-fun .def_385 () Bool (and .def_382 .def_384))
(define-fun .def_378 () (_ BitVec 32) (bvsdiv n__2$main.next (_ bv2 32)))
(define-fun .def_379 () (_ BitVec 32) (bvadd (_ bv1 32) .def_378))
(define-fun .def_380 () Bool (= l__4$main.SSA.1.ssa .def_379))
(define-fun .def_386 () Bool (and .def_380 .def_385))
(define-fun .def_388 () Bool (and .def_386 .def_387))
(define-fun .def_375 () Bool (bvslt (_ bv1 32) l__4$main.SSA.1.ssa))
(define-fun .def_395 () Bool (and .def_375 .def_388))
(define-fun .def_393 () (_ BitVec 32) (bvadd (_ bv4294967295 32) l__4$main.SSA.1.ssa))
(define-fun .def_394 () Bool (= l__4$main.next .def_393))
(define-fun .def_396 () Bool (and .def_394 .def_395))
(define-fun .def_398 () Bool (and .def_396 .def_397))
(define-fun .def_391 () Bool (= l__4$main.next l__4$main.SSA.1.ssa))
(define-fun .def_376 () Bool (not .def_375))
(define-fun .def_389 () Bool (and .def_376 .def_388))
(define-fun .def_372 () (_ BitVec 32) (bvadd (_ bv4294967295 32) r__6$main.SSA.1.ssa))
(define-fun .def_373 () Bool (= r__6$main.next .def_372))
(define-fun .def_390 () Bool (and .def_373 .def_389))
(define-fun .def_392 () Bool (and .def_390 .def_391))
(define-fun .def_399 () Bool (or .def_392 .def_398))
(define-fun .def_44 () (_ BitVec 32) (! i__8$main :next |i__8$main.next|))
(define-fun .def_45 () Bool (= i__8$main.next .def_44))
(define-fun .def_400 () Bool (and .def_45 .def_399))
(define-fun .def_41 () (_ BitVec 32) (! __RET__$main :next |__RET__$main.next|))
(define-fun .def_42 () Bool (= __RET__$main.next .def_41))
(define-fun .def_401 () Bool (and .def_42 .def_400))
(define-fun .def_56 () (_ BitVec 32) (! j__10$main :next |j__10$main.next|))
(define-fun .def_57 () Bool (= j__10$main.next .def_56))
(define-fun .def_402 () Bool (and .def_57 .def_401))
(define-fun .def_162 () Bool (not .PC.1.next))
(define-fun .def_163 () Bool (and .PC.0.next .def_162))
(define-fun .def_28 () Bool (not .PC.2.next))
(define-fun .def_164 () Bool (and .def_28 .def_163))
(define-fun .def_31 () Bool (not .PC.3.next))
(define-fun .def_165 () Bool (and .def_31 .def_164))
(define-fun .def_116 () Bool (not .PC.4.next))
(define-fun .def_281 () Bool (and .def_116 .def_165))
(define-fun .def_403 () Bool (and .def_281 .def_402))
(define-fun .def_404 () Bool (and .def_22 .def_403))
(define-fun .def_68 () Bool (and .def_16 .def_17))
(define-fun .def_85 () Bool (and .def_14 .def_68))
(define-fun .def_110 () Bool (and .def_12 .def_85))
(define-fun .def_369 () Bool (and .def_10 .def_110))
(define-fun .def_60 () (_ BitVec 32) (! r__6$main :next |r__6$main.next|))
(define-fun .def_361 () Bool (bvslt (_ bv1 32) .def_60))
(define-fun .def_52 () (_ BitVec 32) (! l__4$main :next |l__4$main.next|))
(define-fun .def_360 () Bool (= i__8$main.next .def_52))
(define-fun .def_362 () Bool (and .def_360 .def_361))
(define-fun .def_358 () (_ BitVec 32) (bvshl .def_52 (_ bv1 32)))
(define-fun .def_359 () Bool (= j__10$main.next .def_358))
(define-fun .def_363 () Bool (and .def_359 .def_362))
(define-fun .def_364 () Bool (and .def_42 .def_363))
(define-fun .def_48 () (_ BitVec 32) (! n__2$main :next |n__2$main.next|))
(define-fun .def_49 () Bool (= n__2$main.next .def_48))
(define-fun .def_365 () Bool (and .def_49 .def_364))
(define-fun .def_53 () Bool (= l__4$main.next .def_52))
(define-fun .def_366 () Bool (and .def_53 .def_365))
(define-fun .def_61 () Bool (= r__6$main.next .def_60))
(define-fun .def_367 () Bool (and .def_61 .def_366))
(define-fun .def_113 () Bool (and .PC.0.next .PC.1.next))
(define-fun .def_114 () Bool (and .def_28 .def_113))
(define-fun .def_115 () Bool (and .def_31 .def_114))
(define-fun .def_117 () Bool (and .def_115 .def_116))
(define-fun .def_368 () Bool (and .def_117 .def_367))
(define-fun .def_370 () Bool (and .def_368 .def_369))
(define-fun .def_405 () Bool (or .def_370 .def_404))
(define-fun .def_289 () Bool (bvslt (_ bv1 32) .def_52))
(define-fun .def_290 () Bool (not .def_289))
(define-fun .def_134 () Bool (bvslt .def_60 .def_56))
(define-fun .def_291 () Bool (and .def_134 .def_290))
(define-fun .def_287 () Bool (bvslt .def_60 (_ bv1 32)))
(define-fun .def_349 () Bool (and .def_287 .def_291))
(define-fun .def_350 () Bool (and .def_45 .def_349))
(define-fun .def_351 () Bool (and .def_42 .def_350))
(define-fun .def_352 () Bool (and .def_49 .def_351))
(define-fun .def_353 () Bool (and .def_53 .def_352))
(define-fun .def_354 () Bool (and .def_57 .def_353))
(define-fun .def_355 () Bool (and .def_61 .def_354))
(define-fun .def_24 () Bool (not .PC.0.next))
(define-fun .def_176 () Bool (and .def_24 .def_162))
(define-fun .def_225 () Bool (and .PC.2.next .def_176))
(define-fun .def_347 () Bool (and .def_31 .def_225))
(define-fun .def_348 () Bool (and .def_116 .def_347))
(define-fun .def_356 () Bool (and .def_348 .def_355))
(define-fun .def_77 () Bool (and .def_15 .def_17))
(define-fun .def_92 () Bool (and .def_14 .def_77))
(define-fun .def_159 () Bool (and .def_12 .def_92))
(define-fun .def_160 () Bool (and .def_10 .def_159))
(define-fun .def_357 () Bool (and .def_160 .def_356))
(define-fun .def_406 () Bool (or .def_357 .def_405))
(define-fun .def_288 () Bool (not .def_287))
(define-fun .def_292 () Bool (and .def_288 .def_291))
(define-fun .def_285 () Bool (bvslt .def_48 .def_60))
(define-fun .def_338 () Bool (and .def_285 .def_292))
(define-fun .def_339 () Bool (and .def_45 .def_338))
(define-fun .def_340 () Bool (and .def_42 .def_339))
(define-fun .def_341 () Bool (and .def_49 .def_340))
(define-fun .def_342 () Bool (and .def_53 .def_341))
(define-fun .def_343 () Bool (and .def_57 .def_342))
(define-fun .def_344 () Bool (and .def_61 .def_343))
(define-fun .def_213 () Bool (and .PC.2.next .def_163))
(define-fun .def_336 () Bool (and .def_31 .def_213))
(define-fun .def_337 () Bool (and .def_116 .def_336))
(define-fun .def_345 () Bool (and .def_337 .def_344))
(define-fun .def_346 () Bool (and .def_160 .def_345))
(define-fun .def_407 () Bool (or .def_346 .def_406))
(define-fun .def_302 () Bool (and .def_134 .def_289))
(define-fun .def_300 () Bool (bvslt .def_52 (_ bv1 32)))
(define-fun .def_327 () Bool (and .def_300 .def_302))
(define-fun .def_328 () Bool (and .def_45 .def_327))
(define-fun .def_329 () Bool (and .def_42 .def_328))
(define-fun .def_330 () Bool (and .def_49 .def_329))
(define-fun .def_331 () Bool (and .def_53 .def_330))
(define-fun .def_332 () Bool (and .def_57 .def_331))
(define-fun .def_333 () Bool (and .def_61 .def_332))
(define-fun .def_26 () Bool (and .def_24 .PC.1.next))
(define-fun .def_201 () Bool (and .def_26 .PC.2.next))
(define-fun .def_325 () Bool (and .def_31 .def_201))
(define-fun .def_326 () Bool (and .def_116 .def_325))
(define-fun .def_334 () Bool (and .def_326 .def_333))
(define-fun .def_335 () Bool (and .def_160 .def_334))
(define-fun .def_408 () Bool (or .def_335 .def_407))
(define-fun .def_301 () Bool (not .def_300))
(define-fun .def_303 () Bool (and .def_301 .def_302))
(define-fun .def_298 () Bool (bvslt .def_48 .def_52))
(define-fun .def_316 () Bool (and .def_298 .def_303))
(define-fun .def_317 () Bool (and .def_45 .def_316))
(define-fun .def_318 () Bool (and .def_42 .def_317))
(define-fun .def_319 () Bool (and .def_49 .def_318))
(define-fun .def_320 () Bool (and .def_53 .def_319))
(define-fun .def_321 () Bool (and .def_57 .def_320))
(define-fun .def_322 () Bool (and .def_61 .def_321))
(define-fun .def_189 () Bool (and .PC.2.next .def_113))
(define-fun .def_314 () Bool (and .def_31 .def_189))
(define-fun .def_315 () Bool (and .def_116 .def_314))
(define-fun .def_323 () Bool (and .def_315 .def_322))
(define-fun .def_324 () Bool (and .def_160 .def_323))
(define-fun .def_409 () Bool (or .def_324 .def_408))
(define-fun .def_299 () Bool (not .def_298))
(define-fun .def_304 () Bool (and .def_299 .def_303))
(define-fun .def_296 () (_ BitVec 32) (bvadd (_ bv4294967295 32) .def_52))
(define-fun .def_297 () Bool (= l__4$main.next .def_296))
(define-fun .def_305 () Bool (and .def_297 .def_304))
(define-fun .def_306 () Bool (and .def_61 .def_305))
(define-fun .def_286 () Bool (not .def_285))
(define-fun .def_293 () Bool (and .def_286 .def_292))
(define-fun .def_283 () (_ BitVec 32) (bvadd (_ bv4294967295 32) .def_60))
(define-fun .def_284 () Bool (= r__6$main.next .def_283))
(define-fun .def_294 () Bool (and .def_284 .def_293))
(define-fun .def_295 () Bool (and .def_53 .def_294))
(define-fun .def_307 () Bool (or .def_295 .def_306))
(define-fun .def_308 () Bool (and .def_45 .def_307))
(define-fun .def_309 () Bool (and .def_42 .def_308))
(define-fun .def_310 () Bool (and .def_49 .def_309))
(define-fun .def_311 () Bool (and .def_57 .def_310))
(define-fun .def_312 () Bool (and .def_281 .def_311))
(define-fun .def_313 () Bool (and .def_160 .def_312))
(define-fun .def_410 () Bool (or .def_313 .def_409))
(define-fun .def_136 () Bool (bvslt .def_56 .def_60))
(define-fun .def_135 () Bool (not .def_134))
(define-fun .def_137 () Bool (and .def_135 .def_136))
(define-fun .def_132 () Bool (bvslt .def_56 (_ bv1 32)))
(define-fun .def_272 () Bool (and .def_132 .def_137))
(define-fun .def_273 () Bool (and .def_45 .def_272))
(define-fun .def_274 () Bool (and .def_42 .def_273))
(define-fun .def_275 () Bool (and .def_49 .def_274))
(define-fun .def_276 () Bool (and .def_53 .def_275))
(define-fun .def_277 () Bool (and .def_57 .def_276))
(define-fun .def_278 () Bool (and .def_61 .def_277))
(define-fun .def_177 () Bool (and .def_28 .def_176))
(define-fun .def_270 () Bool (and .PC.3.next .def_177))
(define-fun .def_271 () Bool (and .def_116 .def_270))
(define-fun .def_279 () Bool (and .def_271 .def_278))
(define-fun .def_280 () Bool (and .def_160 .def_279))
(define-fun .def_411 () Bool (or .def_280 .def_410))
(define-fun .def_133 () Bool (not .def_132))
(define-fun .def_138 () Bool (and .def_133 .def_137))
(define-fun .def_130 () Bool (bvslt .def_48 .def_56))
(define-fun .def_261 () Bool (and .def_130 .def_138))
(define-fun .def_262 () Bool (and .def_45 .def_261))
(define-fun .def_263 () Bool (and .def_42 .def_262))
(define-fun .def_264 () Bool (and .def_49 .def_263))
(define-fun .def_265 () Bool (and .def_53 .def_264))
(define-fun .def_266 () Bool (and .def_57 .def_265))
(define-fun .def_267 () Bool (and .def_61 .def_266))
(define-fun .def_259 () Bool (and .PC.3.next .def_164))
(define-fun .def_260 () Bool (and .def_116 .def_259))
(define-fun .def_268 () Bool (and .def_260 .def_267))
(define-fun .def_269 () Bool (and .def_160 .def_268))
(define-fun .def_412 () Bool (or .def_269 .def_411))
(define-fun .def_131 () Bool (not .def_130))
(define-fun .def_139 () Bool (and .def_131 .def_138))
(define-fun .def_125 () (_ BitVec 32) (bvadd (_ bv1 32) .def_56))
(define-fun .def_128 () Bool (bvslt .def_125 (_ bv1 32)))
(define-fun .def_250 () Bool (and .def_128 .def_139))
(define-fun .def_251 () Bool (and .def_45 .def_250))
(define-fun .def_252 () Bool (and .def_42 .def_251))
(define-fun .def_253 () Bool (and .def_49 .def_252))
(define-fun .def_254 () Bool (and .def_53 .def_253))
(define-fun .def_255 () Bool (and .def_57 .def_254))
(define-fun .def_256 () Bool (and .def_61 .def_255))
(define-fun .def_29 () Bool (and .def_26 .def_28))
(define-fun .def_248 () Bool (and .def_29 .PC.3.next))
(define-fun .def_249 () Bool (and .def_116 .def_248))
(define-fun .def_257 () Bool (and .def_249 .def_256))
(define-fun .def_258 () Bool (and .def_160 .def_257))
(define-fun .def_413 () Bool (or .def_258 .def_412))
(define-fun .def_129 () Bool (not .def_128))
(define-fun .def_140 () Bool (and .def_129 .def_139))
(define-fun .def_126 () Bool (bvslt .def_48 .def_125))
(define-fun .def_239 () Bool (and .def_126 .def_140))
(define-fun .def_240 () Bool (and .def_45 .def_239))
(define-fun .def_241 () Bool (and .def_42 .def_240))
(define-fun .def_242 () Bool (and .def_49 .def_241))
(define-fun .def_243 () Bool (and .def_53 .def_242))
(define-fun .def_244 () Bool (and .def_57 .def_243))
(define-fun .def_245 () Bool (and .def_61 .def_244))
(define-fun .def_237 () Bool (and .PC.3.next .def_114))
(define-fun .def_238 () Bool (and .def_116 .def_237))
(define-fun .def_246 () Bool (and .def_238 .def_245))
(define-fun .def_247 () Bool (and .def_160 .def_246))
(define-fun .def_414 () Bool (or .def_247 .def_413))
(define-fun .def_142 () Bool (not .def_136))
(define-fun .def_143 () Bool (and .def_135 .def_142))
(define-fun .def_127 () Bool (not .def_126))
(define-fun .def_141 () Bool (and .def_127 .def_140))
(define-fun .def_144 () Bool (or .def_141 .def_143))
(define-fun .def_228 () Bool (and .def_132 .def_144))
(define-fun .def_229 () Bool (and .def_45 .def_228))
(define-fun .def_230 () Bool (and .def_42 .def_229))
(define-fun .def_231 () Bool (and .def_49 .def_230))
(define-fun .def_232 () Bool (and .def_53 .def_231))
(define-fun .def_233 () Bool (and .def_57 .def_232))
(define-fun .def_234 () Bool (and .def_61 .def_233))
(define-fun .def_226 () Bool (and .PC.3.next .def_225))
(define-fun .def_227 () Bool (and .def_116 .def_226))
(define-fun .def_235 () Bool (and .def_227 .def_234))
(define-fun .def_236 () Bool (and .def_160 .def_235))
(define-fun .def_415 () Bool (or .def_236 .def_414))
(define-fun .def_145 () Bool (and .def_133 .def_144))
(define-fun .def_216 () Bool (and .def_130 .def_145))
(define-fun .def_217 () Bool (and .def_45 .def_216))
(define-fun .def_218 () Bool (and .def_42 .def_217))
(define-fun .def_219 () Bool (and .def_49 .def_218))
(define-fun .def_220 () Bool (and .def_53 .def_219))
(define-fun .def_221 () Bool (and .def_57 .def_220))
(define-fun .def_222 () Bool (and .def_61 .def_221))
(define-fun .def_214 () Bool (and .PC.3.next .def_213))
(define-fun .def_215 () Bool (and .def_116 .def_214))
(define-fun .def_223 () Bool (and .def_215 .def_222))
(define-fun .def_224 () Bool (and .def_160 .def_223))
(define-fun .def_416 () Bool (or .def_224 .def_415))
(define-fun .def_146 () Bool (and .def_131 .def_145))
(define-fun .def_123 () Bool (bvslt .def_44 (_ bv1 32)))
(define-fun .def_204 () Bool (and .def_123 .def_146))
(define-fun .def_205 () Bool (and .def_45 .def_204))
(define-fun .def_206 () Bool (and .def_42 .def_205))
(define-fun .def_207 () Bool (and .def_49 .def_206))
(define-fun .def_208 () Bool (and .def_53 .def_207))
(define-fun .def_209 () Bool (and .def_57 .def_208))
(define-fun .def_210 () Bool (and .def_61 .def_209))
(define-fun .def_202 () Bool (and .PC.3.next .def_201))
(define-fun .def_203 () Bool (and .def_116 .def_202))
(define-fun .def_211 () Bool (and .def_203 .def_210))
(define-fun .def_212 () Bool (and .def_160 .def_211))
(define-fun .def_417 () Bool (or .def_212 .def_416))
(define-fun .def_124 () Bool (not .def_123))
(define-fun .def_147 () Bool (and .def_124 .def_146))
(define-fun .def_121 () Bool (bvslt .def_48 .def_44))
(define-fun .def_192 () Bool (and .def_121 .def_147))
(define-fun .def_193 () Bool (and .def_45 .def_192))
(define-fun .def_194 () Bool (and .def_42 .def_193))
(define-fun .def_195 () Bool (and .def_49 .def_194))
(define-fun .def_196 () Bool (and .def_53 .def_195))
(define-fun .def_197 () Bool (and .def_57 .def_196))
(define-fun .def_198 () Bool (and .def_61 .def_197))
(define-fun .def_190 () Bool (and .PC.3.next .def_189))
(define-fun .def_191 () Bool (and .def_116 .def_190))
(define-fun .def_199 () Bool (and .def_191 .def_198))
(define-fun .def_200 () Bool (and .def_160 .def_199))
(define-fun .def_418 () Bool (or .def_200 .def_417))
(define-fun .def_122 () Bool (not .def_121))
(define-fun .def_148 () Bool (and .def_122 .def_147))
(define-fun .def_180 () Bool (and .def_132 .def_148))
(define-fun .def_181 () Bool (and .def_45 .def_180))
(define-fun .def_182 () Bool (and .def_42 .def_181))
(define-fun .def_183 () Bool (and .def_49 .def_182))
(define-fun .def_184 () Bool (and .def_53 .def_183))
(define-fun .def_185 () Bool (and .def_57 .def_184))
(define-fun .def_186 () Bool (and .def_61 .def_185))
(define-fun .def_178 () Bool (and .def_31 .def_177))
(define-fun .def_179 () Bool (and .PC.4.next .def_178))
(define-fun .def_187 () Bool (and .def_179 .def_186))
(define-fun .def_188 () Bool (and .def_160 .def_187))
(define-fun .def_419 () Bool (or .def_188 .def_418))
(define-fun .def_149 () Bool (and .def_133 .def_148))
(define-fun .def_167 () Bool (and .def_130 .def_149))
(define-fun .def_168 () Bool (and .def_45 .def_167))
(define-fun .def_169 () Bool (and .def_42 .def_168))
(define-fun .def_170 () Bool (and .def_49 .def_169))
(define-fun .def_171 () Bool (and .def_53 .def_170))
(define-fun .def_172 () Bool (and .def_57 .def_171))
(define-fun .def_173 () Bool (and .def_61 .def_172))
(define-fun .def_166 () Bool (and .PC.4.next .def_165))
(define-fun .def_174 () Bool (and .def_166 .def_173))
(define-fun .def_175 () Bool (and .def_160 .def_174))
(define-fun .def_420 () Bool (or .def_175 .def_419))
(define-fun .def_151 () Bool (= i__8$main.next .def_56))
(define-fun .def_150 () Bool (and .def_131 .def_149))
(define-fun .def_152 () Bool (and .def_150 .def_151))
(define-fun .def_119 () (_ BitVec 32) (bvshl .def_56 (_ bv1 32)))
(define-fun .def_120 () Bool (= j__10$main.next .def_119))
(define-fun .def_153 () Bool (and .def_120 .def_152))
(define-fun .def_154 () Bool (and .def_42 .def_153))
(define-fun .def_155 () Bool (and .def_49 .def_154))
(define-fun .def_156 () Bool (and .def_53 .def_155))
(define-fun .def_157 () Bool (and .def_61 .def_156))
(define-fun .def_158 () Bool (and .def_117 .def_157))
(define-fun .def_161 () Bool (and .def_158 .def_160))
(define-fun .def_421 () Bool (or .def_161 .def_420))
(define-fun .def_111 () Bool (and .def_9 .def_110))
(define-fun .def_46 () Bool (and .def_42 .def_45))
(define-fun .def_50 () Bool (and .def_46 .def_49))
(define-fun .def_54 () Bool (and .def_50 .def_53))
(define-fun .def_58 () Bool (and .def_54 .def_57))
(define-fun .def_62 () Bool (and .def_58 .def_61))
(define-fun .def_32 () Bool (and .def_29 .def_31))
(define-fun .def_34 () Bool (and .def_32 .PC.4.next))
(define-fun .def_63 () Bool (and .def_34 .def_62))
(define-fun .def_112 () Bool (and .def_63 .def_111))
(define-fun .def_422 () Bool (or .def_112 .def_421))
(define-fun .def_108 () Bool (and .def_9 .def_21))
(define-fun .def_109 () Bool (and .def_63 .def_108))
(define-fun .def_423 () Bool (or .def_109 .def_422))
(define-fun .def_78 () Bool (and .def_13 .def_77))
(define-fun .def_105 () Bool (and .def_11 .def_78))
(define-fun .def_106 () Bool (and .def_10 .def_105))
(define-fun .def_107 () Bool (and .def_63 .def_106))
(define-fun .def_424 () Bool (or .def_107 .def_423))
(define-fun .def_35 () Bool (and .def_15 .def_18))
(define-fun .def_73 () Bool (and .def_13 .def_35))
(define-fun .def_102 () Bool (and .def_11 .def_73))
(define-fun .def_103 () Bool (and .def_10 .def_102))
(define-fun .def_104 () Bool (and .def_63 .def_103))
(define-fun .def_425 () Bool (or .def_104 .def_424))
(define-fun .def_69 () Bool (and .def_13 .def_68))
(define-fun .def_99 () Bool (and .def_11 .def_69))
(define-fun .def_100 () Bool (and .def_10 .def_99))
(define-fun .def_101 () Bool (and .def_63 .def_100))
(define-fun .def_426 () Bool (or .def_101 .def_425))
(define-fun .def_64 () Bool (and .def_13 .def_19))
(define-fun .def_96 () Bool (and .def_11 .def_64))
(define-fun .def_97 () Bool (and .def_10 .def_96))
(define-fun .def_98 () Bool (and .def_63 .def_97))
(define-fun .def_427 () Bool (or .def_98 .def_426))
(define-fun .def_93 () Bool (and .def_11 .def_92))
(define-fun .def_94 () Bool (and .def_10 .def_93))
(define-fun .def_95 () Bool (and .def_63 .def_94))
(define-fun .def_428 () Bool (or .def_95 .def_427))
(define-fun .def_36 () Bool (and .def_14 .def_35))
(define-fun .def_89 () Bool (and .def_11 .def_36))
(define-fun .def_90 () Bool (and .def_10 .def_89))
(define-fun .def_91 () Bool (and .def_63 .def_90))
(define-fun .def_429 () Bool (or .def_91 .def_428))
(define-fun .def_86 () Bool (and .def_11 .def_85))
(define-fun .def_87 () Bool (and .def_10 .def_86))
(define-fun .def_88 () Bool (and .def_63 .def_87))
(define-fun .def_430 () Bool (or .def_88 .def_429))
(define-fun .def_82 () Bool (and .def_11 .def_20))
(define-fun .def_83 () Bool (and .def_10 .def_82))
(define-fun .def_84 () Bool (and .def_63 .def_83))
(define-fun .def_431 () Bool (or .def_84 .def_430))
(define-fun .def_79 () Bool (and .def_12 .def_78))
(define-fun .def_80 () Bool (and .def_10 .def_79))
(define-fun .def_81 () Bool (and .def_63 .def_80))
(define-fun .def_432 () Bool (or .def_81 .def_431))
(define-fun .def_74 () Bool (and .def_12 .def_73))
(define-fun .def_75 () Bool (and .def_10 .def_74))
(define-fun .def_76 () Bool (and .def_63 .def_75))
(define-fun .def_433 () Bool (or .def_76 .def_432))
(define-fun .def_70 () Bool (and .def_12 .def_69))
(define-fun .def_71 () Bool (and .def_10 .def_70))
(define-fun .def_72 () Bool (and .def_63 .def_71))
(define-fun .def_434 () Bool (or .def_72 .def_433))
(define-fun .def_65 () Bool (and .def_12 .def_64))
(define-fun .def_66 () Bool (and .def_10 .def_65))
(define-fun .def_67 () Bool (and .def_63 .def_66))
(define-fun .def_435 () Bool (or .def_67 .def_434))
(define-fun .def_37 () Bool (and .def_12 .def_36))
(define-fun .def_38 () Bool (and .def_9 .def_37))
(define-fun .def_39 () Bool (and .def_34 .def_38))
(define-fun .def_436 () Bool (! (or .def_39 .def_435) :trans true))
(define-fun .def_437 () Bool (! (not .def_38) :invar-property 0))
(assert true)
